<instance format="XCSP3" type="CSP">
  <variables>
    <var id="x0"> 8 9 14 </var>
    <var id="x1"> 0 8 12 14 </var>
    <var id="x2"> 3 8 12 14 </var>
    <var id="x3"> 0 6 8 </var>
    <var id="x4"> 0 6 </var>
    <var id="x5"> 8 9 12 </var>
    <var id="x6"> 0 3 14 </var>
    <var id="x7"> 0 9 13 14 </var>
    <var id="x8"> 0 1 4 8 </var>
    <var id="x9"> 0 1 4 8 </var>
    <var id="x10"> 8 9 13 </var>
    <var id="x11"> 0 1 8 </var>
    <var id="x12"> 4 8 9 </var>
    <var id="x13"> 0 4 13 14 </var>
    <var id="x14"> 1 2 5 8 12 14 </var>
    <var id="x15"> 1 8 12 </var>
    <var id="x16"> 2 8 12 14 </var>
    <var id="x17"> 1 2 8 </var>
    <var id="x18"> 2 5 8 12 13 </var>
    <var id="x19"> 1 2 8 12 </var>
    <var id="x20"> 5 13 14 </var>
    <var id="x21"> 1 5 13 </var>
    <var id="x22"> 0 2 13 </var>
    <var id="x23"> 0 1 11 13 </var>
    <var id="x24"> 0 1 12 </var>
    <var id="x25"> 0..2 </var>
    <var id="x26"> 0..2 13 </var>
    <var id="x27"> 0..2 12 </var>
    <var id="x28"> 1 8..10 </var>
    <var id="x29"> 0 1 7 9 </var>
    <var id="x30"> 0 1 6 8 10 </var>
    <var id="x31"> 0 1 6 7 </var>
    <var id="x32"> 1 6 7 9 10 </var>
    <var id="x33"> 6 8 9 </var>
    <var id="x34"> 0 10 </var>
    <var id="x35"> 10 </var>
    <var id="x36"> 2 11 </var>
    <var id="x37"> 4 7 11 </var>
    <var id="x38"> 2 3 10 11 </var>
    <var id="x39"> 2 7 </var>
    <var id="x40"> 2 4 6 11 </var>
    <var id="x41"> 3 4 10 </var>
    <var id="x42"> 8 14 </var>
    <var id="x43"> 2 8 11 12 14 </var>
    <var id="x44"> 2 4 6 11 14 </var>
    <var id="x45"> 2 4 6 </var>
    <var id="x46"> 4 6 8 11 12 </var>
    <var id="x47"> 6 12 </var>
    <var id="x48"> 4 14 </var>
    <var id="x49"> 1 11 12 </var>
    <var id="x50"> 1 4 6 10 12 </var>
    <var id="x51"> 10..12 </var>
    <var id="x52"> 4 6 11 </var>
    <var id="x53"> 1 4 6 13 </var>
    <var id="x54"> 4 6 10..13 </var>
    <var id="x55"> 4 6 11 12 </var>
    <var id="x56"> 5 8 11 12 14 </var>
    <var id="x57"> 6 14 </var>
    <var id="x58"> 4 6 8 12 </var>
    <var id="x59"> 4..6 11 14 </var>
    <var id="x60"> 4 6 7 </var>
    <var as="x46" id="x61"/>
    <var id="x62"> 6 8 12 </var>
    <var as="x46" id="x63"/>
    <var id="x64"> 0 2 5 12 14 </var>
    <var id="x65"> 0 2 10 13 14 </var>
    <var id="x66"> 0 13 </var>
    <var id="x67"> 2 5 14 </var>
    <var id="x68"> 10 12 13 </var>
    <var id="x69"> 5 10 12 </var>
    <var id="x70"> 2 12 </var>
    <var id="x71"> 2 9 10 13 </var>
    <var id="x72"> 4 7 9 13 </var>
    <var id="x73"> 2 4 7 8 </var>
    <var id="x74"> 2 4 7 13 </var>
    <var id="x75"> 4 8 10 13 </var>
    <var id="x76"> 7 9 10 </var>
    <var id="x77"> 2 4 8 9 </var>
    <var id="x78"> 0 2 8 11 </var>
    <var id="x79"> 0 2 10 </var>
    <var id="x80"> 2 8 10 11 </var>
    <var id="x81"> 0 2 4 7 8 </var>
    <var id="x82"> 4 8 10 11 </var>
    <var id="x83"> 7 10 </var>
    <var id="x84"> 0 2 8 </var>
    <var id="x85"> 1 8 10 </var>
    <var id="x86"> 0 1 4 </var>
    <var id="x87"> 3 8 10 </var>
    <var id="x88"> 3 4 6 </var>
    <var id="x89"> 8 </var>
    <var id="x90"> 4 6 8 10 </var>
    <var id="x91"> 0 1 3 6 8 </var>
    <var id="x92"> 1 5 9 13 </var>
    <var id="x93"> 2 6 9 13 </var>
    <var id="x94"> 2 3 </var>
    <var id="x95"> 2 3 5 6 </var>
    <var id="x96"> 2 5 9 13 </var>
    <var id="x97"> 1 5 6 9 </var>
    <var id="x98"> 1..3 6 </var>
    <var id="x99"> 0 1 9 </var>
    <var id="x100"> 0 1 6 12 </var>
    <var id="x101"> 0..2 6 </var>
    <var id="x102"> 2 5 6 </var>
    <var id="x103"> 2 5 9 12 </var>
    <var id="x104"> 1 5 6 9 12 </var>
    <var id="x105"> 0 5 </var>
  </variables>
  <constraints>
    <group>
      <allDifferent> %... </allDifferent>
      <args> x0 x1 x2 x3 x4 x5 x6 </args>
      <args> x7 x8 x9 x10 x11 x12 x13 </args>
      <args> x14 x15 x16 x17 x18 x19 x20 </args>
      <args> x21 x22 x23 x24 x25 x26 x27 </args>
      <args> x28 x29 x30 x31 x32 x33 x34 </args>
      <args> x35 x36 x37 x38 x39 x40 x41 </args>
      <args> x42 x43 x44 x45 x46 x47 x48 </args>
      <args> x49 x50 x51 x52 x53 x54 x55 </args>
      <args> x56 x57 x58 x59 x60 x61 x62 x63 </args>
      <args> x64 x65 x66 x67 x68 x69 x70 </args>
      <args> x71 x72 x73 x74 x75 x76 x77 </args>
      <args> x78 x79 x80 x81 x82 x83 x84 </args>
      <args> x85 x86 x87 x88 x89 x90 x91 </args>
      <args> x92 x93 x94 x95 x96 x97 x98 </args>
      <args> x99 x100 x101 x102 x103 x104 x105 </args>
      <args> x0 x21 x28 x35 x42 x85 x92 </args>
      <args> x1 x14 x36 x43 x49 x56 x64 x78 </args>
      <args> x7 x22 x57 x65 x71 x79 x93 </args>
      <args> x23 x29 x37 x66 x72 x86 x99 </args>
      <args> x8 x15 x24 x30 x50 x58 x100 </args>
      <args> x2 x16 x38 x51 x80 x87 x94 </args>
      <args> x3 x9 x17 x25 x73 x81 x101 </args>
      <args> x44 x52 x59 x67 x88 x95 x102 </args>
      <args> x4 x26 x31 x45 x53 x60 x74 </args>
      <args> x5 x10 x18 x39 x89 x96 x103 </args>
      <args> x46 x54 x61 x68 x75 x82 x90 </args>
      <args> x32 x47 x69 x76 x83 x97 x104 </args>
      <args> x11 x19 x27 x62 x84 x91 x98 </args>
      <args> x12 x33 x40 x55 x63 x70 x77 </args>
      <args> x6 x13 x20 x34 x41 x48 x105 </args>
    </group>
  </constraints>
</instance>

